(set-info :smt-lib-version 2.6)
(set-logic QF_S)
(set-info :source |
Generated by: Hung-En Wang, Tzung-Lin Tsai, Chun-Han Lin, Fang Yu, and Jie-Hong R. Jiang
Generated on: 2019-02-28
Generator: Stranger
Application: Security analysis of string manipulating web applications
Target solver: CVC4, Norn, Z3-str2
Publication:
Hung-En Wang, Tzung-Lin Tsai, Chun-Han Lin, Fang Yu, Jie-Hong R. Jiang:
String Analysis via Automata Manipulation with Logic Circuit Representation. CAV (1) 2016: 241-260.
|)
(set-info :license "https://creativecommons.org/licenses/by/4.0/")
(set-info :category "industrial")
(set-info :status unknown)

(declare-fun sigmaStar_0 () String)
(declare-fun sigmaStar_1 () String)
(declare-fun sigmaStar_2 () String)
(declare-fun sigmaStar_3 () String)
(declare-fun sigmaStar_4 () String)
(declare-fun sigmaStar_5 () String)
(declare-fun x_21 () String)
(declare-fun literal_15 () String)
(declare-fun literal_18 () String)
(declare-fun literal_22 () String)
(declare-fun x_23 () String)
(declare-fun x_20 () String)
(declare-fun epsilon () String)
(declare-fun x_24 () String)
(assert (= literal_15 "\u{3c}\u{62}\u{3e}\u{75}\u{73}\u{65}\u{72}\u{3c}\u{2f}\u{62}\u{3e}\u{20}\u{5b}\u{2c}\u{20}\u{5d}\u{20}\u{3a}\u{20}"))
(assert (= literal_18 ""))
(assert (or (= x_21 literal_15) (= x_21 literal_18)))
(assert (= literal_22 "\u{20}"))
(assert (= x_23 (str.++ x_21 literal_22)))
(assert (= epsilon ""))
(assert (or (= x_20 epsilon) (= x_20 sigmaStar_1)))
(assert (= x_24 (str.++ x_23 x_20)))
(assert (str.in_re x_24 (re.++ (re.* re.allchar) (re.++ (str.to_re "\u{5c}\u{3c}\u{53}\u{43}\u{52}\u{49}\u{50}\u{54}") (re.* re.allchar)))))
(check-sat)
(exit)
